words_hard_train/2883.qaiger
aag 90 17 0 1 73
2
4
8
12
16
20
24
32
60
68
70
86
106
114
130
138
168
180
6 3 5
10 6 9
14 10 13
18 14 17
22 18 21
26 23 24
28 22 25
30 27 29
34 32 2
36 34 5
38 36 9
40 11 12
42 41 15
44 38 42
46 44 17
48 19 20
50 49 23
52 46 50
54 31 53
56 30 52
58 55 57
62 59 61
64 58 60
66 63 65
72 68 70
74 69 71
76 73 75
78 57 29
80 76 79
82 77 78
84 81 83
88 86 16
90 87 17
92 89 91
94 45 15
96 93 94
98 92 95
100 97 99
102 39 43
104 103 45
108 105 106
110 104 107
112 109 111
116 114 8
118 115 9
120 117 119
122 37 7
124 121 123
126 120 122
128 125 127
132 130 4
134 131 5
136 133 135
140 138 33
142 136 141
144 139 32
146 145 2
148 146 137
150 143 149
152 141 145
154 153 3
156 150 155
158 129 156
160 112 158
162 100 160
164 47 51
166 165 53
170 167 169
172 166 168
174 171 173
176 162 175
178 84 176
180 67 178
i0 2 y1[0]
i1 2 y1[1]
i2 2 y1[2]
i3 2 y1[3]
i4 2 y1[4]
i5 2 y1[5]
i6 2 y1[6]
i7 1 x1[0]
i8 1 x2[6]
i9 1 x2[7]
i10 2 y1[7]
i11 1 x2[4]
i12 1 x2[3]
i13 1 x2[2]
i14 1 x2[1]
i15 1 x2[0]
i16 1 x2[5]
o0 bool[0]
c
simplified
  ==
    subtract
      and
        1 x1
        abs
          1
      2 y1
    1 x2
