words_hard_train/2883.qaiger.qdimacs
p cnf 90 220
a 65 34 69 43 16 84 53 57 30 0
e 1 2 3 4 5 6 7 8 9 10 11 12 13 14 15 17 18 19 20 21 22 23 24 25 26 27 28 29 31 32 33 35 36 37 38 39 40 41 42 44 45 46 47 48 49 50 51 52 54 55 56 58 59 60 61 62 63 64 66 67 68 70 71 72 73 74 75 76 77 78 79 80 81 82 83 85 86 87 88 89 90 0
1 2 3 0
-1 -3 0
-2 -3 0
-3 4 5 0
3 -5 0
-4 -5 0
-5 6 7 0
5 -7 0
-6 -7 0
-7 8 9 0
7 -9 0
-8 -9 0
-9 10 11 0
9 -11 0
-10 -11 0
11 -12 13 0
-11 -13 0
12 -13 0
-11 12 14 0
11 -14 0
-12 -14 0
13 14 15 0
-13 -15 0
-14 -15 0
-16 -1 17 0
16 -17 0
1 -17 0
-17 2 18 0
17 -18 0
-2 -18 0
-18 4 19 0
18 -19 0
-4 -19 0
5 -6 20 0
-5 -20 0
6 -20 0
20 7 21 0
-20 -21 0
-7 -21 0
-19 -21 22 0
19 -22 0
21 -22 0
-22 8 23 0
22 -23 0
-8 -23 0
9 -10 24 0
-9 -24 0
10 -24 0
24 11 25 0
-24 -25 0
-11 -25 0
-23 -25 26 0
23 -26 0
25 -26 0
15 26 27 0
-15 -27 0
-26 -27 0
-15 -26 28 0
15 -28 0
26 -28 0
27 28 29 0
-27 -29 0
-28 -29 0
29 30 31 0
-29 -31 0
-30 -31 0
-29 -30 32 0
29 -32 0
30 -32 0
31 32 33 0
-31 -33 0
-32 -33 0
-34 -35 36 0
34 -36 0
35 -36 0
34 35 37 0
-34 -37 0
-35 -37 0
36 37 38 0
-36 -38 0
-37 -38 0
28 14 39 0
-28 -39 0
-14 -39 0
-38 39 40 0
38 -40 0
-39 -40 0
38 -39 41 0
-38 -41 0
39 -41 0
40 41 42 0
-40 -42 0
-41 -42 0
-43 -8 44 0
43 -44 0
8 -44 0
43 8 45 0
-43 -45 0
-8 -45 0
44 45 46 0
-44 -46 0
-45 -46 0
22 7 47 0
-22 -47 0
-7 -47 0
46 -47 48 0
-46 -48 0
47 -48 0
-46 47 49 0
46 -49 0
-47 -49 0
48 49 50 0
-48 -50 0
-49 -50 0
19 21 51 0
-19 -51 0
-21 -51 0
51 22 52 0
-51 -52 0
-22 -52 0
52 -53 54 0
-52 -54 0
53 -54 0
-52 53 55 0
52 -55 0
-53 -55 0
54 55 56 0
-54 -56 0
-55 -56 0
-57 -4 58 0
57 -58 0
4 -58 0
57 4 59 0
-57 -59 0
-4 -59 0
58 59 60 0
-58 -60 0
-59 -60 0
18 3 61 0
-18 -61 0
-3 -61 0
60 61 62 0
-60 -62 0
-61 -62 0
-60 -61 63 0
60 -63 0
61 -63 0
62 63 64 0
-62 -64 0
-63 -64 0
-65 -2 66 0
65 -66 0
2 -66 0
65 2 67 0
-65 -67 0
-2 -67 0
66 67 68 0
-66 -68 0
-67 -68 0
-69 16 70 0
69 -70 0
-16 -70 0
-68 70 71 0
68 -71 0
-70 -71 0
69 -16 72 0
-69 -72 0
16 -72 0
72 -1 73 0
-72 -73 0
1 -73 0
-73 68 74 0
73 -74 0
-68 -74 0
71 74 75 0
-71 -75 0
-74 -75 0
70 72 76 0
-70 -76 0
-72 -76 0
76 1 77 0
-76 -77 0
-1 -77 0
-75 77 78 0
75 -78 0
-77 -78 0
64 -78 79 0
-64 -79 0
78 -79 0
-56 -79 80 0
56 -80 0
79 -80 0
-50 -80 81 0
50 -81 0
80 -81 0
23 25 82 0
-23 -82 0
-25 -82 0
82 26 83 0
-82 -83 0
-26 -83 0
83 84 85 0
-83 -85 0
-84 -85 0
-83 -84 86 0
83 -86 0
84 -86 0
85 86 87 0
-85 -87 0
-86 -87 0
-81 87 88 0
81 -88 0
-87 -88 0
-42 -88 89 0
42 -89 0
88 -89 0
33 -89 90 0
-33 -90 0
89 -90 0
90 0
